Output/BruteForce/Random_015_05_5.ans
Facilties: 0 1 4 5 13 Score: 26
