Output/Exact/Random_015_05_5.lp.out
CPU Time for Parsing input: 0.001247s (0.001247s total since program start)
CPU Time for solving: 0.010826s (0.012073s total since program start)

Value of objective function: 26.00000000
